n_boats=80;
n_periods=20;
capacity=[6,7,34,18,11,45,31,7,24,28,3,28,12,35,7,41,17,37,16,24,23,32,40,8,25,43,27,16,14,24,12,48,47,41,2,20,32,30,18,18,12,13,10,34,17,43,6,29,21,38,3,46,4,37,30,6,39,23,40,44,19,8,25,16,11,34,13,48,34,32,15,4,33,46,1,20,17,28,21,26];
crew=[2,5,25,8,11,12,18,2,8,26,2,9,3,12,3,17,10,14,3,12,7,20,2,2,25,24,14,8,12,11,3,36,32,35,2,7,16,17,1,5,6,3,10,27,5,15,1,27,19,16,1,28,4,5,11,6,1,2,17,34,12,1,2,6,10,8,7,18,21,20,7,2,11,2,1,20,3,10,5,7];
